5

0   6   22   4   18
6   0   25   1   17
22   25   0   20   2
4   1   20   0   17
18   17   2   17   0

0   70   44   61   38
70   0   52   9   46
44   52   0   61   6
61   9   61   0   55
38   46   6   55   0